c File: flat50_3_0.col
c
c SOURCE: Joseph Culberson (joe@cs.ualberta.ca)
c DESCRIPTION: Quasi-random coloring problem
c              generated with flatness = 0
c                             probability = 0.139
c                             known coloring = 3
c                             random seed = 1109
c              Creation Date:  Tue Jun  9 12:01:21 1998
c Maximum degree = 8 Minimum degree = 0
c p edge 50 115
c cnf created by edge2cnf
p cnf 150 545
-1 -2 0
-1 -3 0
-2 -3 0
1 2 3 0
-4 -5 0
-4 -6 0
-5 -6 0
4 5 6 0
-7 -8 0
-7 -9 0
-8 -9 0
7 8 9 0
-10 -11 0
-10 -12 0
-11 -12 0
10 11 12 0
-13 -14 0
-13 -15 0
-14 -15 0
13 14 15 0
-16 -17 0
-16 -18 0
-17 -18 0
16 17 18 0
-19 -20 0
-19 -21 0
-20 -21 0
19 20 21 0
-22 -23 0
-22 -24 0
-23 -24 0
22 23 24 0
-25 -26 0
-25 -27 0
-26 -27 0
25 26 27 0
-28 -29 0
-28 -30 0
-29 -30 0
28 29 30 0
-31 -32 0
-31 -33 0
-32 -33 0
31 32 33 0
-34 -35 0
-34 -36 0
-35 -36 0
34 35 36 0
-37 -38 0
-37 -39 0
-38 -39 0
37 38 39 0
-40 -41 0
-40 -42 0
-41 -42 0
40 41 42 0
-43 -44 0
-43 -45 0
-44 -45 0
43 44 45 0
-46 -47 0
-46 -48 0
-47 -48 0
46 47 48 0
-49 -50 0
-49 -51 0
-50 -51 0
49 50 51 0
-52 -53 0
-52 -54 0
-53 -54 0
52 53 54 0
-55 -56 0
-55 -57 0
-56 -57 0
55 56 57 0
-58 -59 0
-58 -60 0
-59 -60 0
58 59 60 0
-61 -62 0
-61 -63 0
-62 -63 0
61 62 63 0
-64 -65 0
-64 -66 0
-65 -66 0
64 65 66 0
-67 -68 0
-67 -69 0
-68 -69 0
67 68 69 0
-70 -71 0
-70 -72 0
-71 -72 0
70 71 72 0
-73 -74 0
-73 -75 0
-74 -75 0
73 74 75 0
-76 -77 0
-76 -78 0
-77 -78 0
76 77 78 0
-79 -80 0
-79 -81 0
-80 -81 0
79 80 81 0
-82 -83 0
-82 -84 0
-83 -84 0
82 83 84 0
-85 -86 0
-85 -87 0
-86 -87 0
85 86 87 0
-88 -89 0
-88 -90 0
-89 -90 0
88 89 90 0
-91 -92 0
-91 -93 0
-92 -93 0
91 92 93 0
-94 -95 0
-94 -96 0
-95 -96 0
94 95 96 0
-97 -98 0
-97 -99 0
-98 -99 0
97 98 99 0
-100 -101 0
-100 -102 0
-101 -102 0
100 101 102 0
-103 -104 0
-103 -105 0
-104 -105 0
103 104 105 0
-106 -107 0
-106 -108 0
-107 -108 0
106 107 108 0
-109 -110 0
-109 -111 0
-110 -111 0
109 110 111 0
-112 -113 0
-112 -114 0
-113 -114 0
112 113 114 0
-115 -116 0
-115 -117 0
-116 -117 0
115 116 117 0
-118 -119 0
-118 -120 0
-119 -120 0
118 119 120 0
-121 -122 0
-121 -123 0
-122 -123 0
121 122 123 0
-124 -125 0
-124 -126 0
-125 -126 0
124 125 126 0
-127 -128 0
-127 -129 0
-128 -129 0
127 128 129 0
-130 -131 0
-130 -132 0
-131 -132 0
130 131 132 0
-133 -134 0
-133 -135 0
-134 -135 0
133 134 135 0
-136 -137 0
-136 -138 0
-137 -138 0
136 137 138 0
-139 -140 0
-139 -141 0
-140 -141 0
139 140 141 0
-142 -143 0
-142 -144 0
-143 -144 0
142 143 144 0
-145 -146 0
-145 -147 0
-146 -147 0
145 146 147 0
-148 -149 0
-148 -150 0
-149 -150 0
148 149 150 0
-52 -1 0
-53 -2 0
-54 -3 0
-61 -1 0
-62 -2 0
-63 -3 0
-64 -1 0
-65 -2 0
-66 -3 0
-82 -1 0
-83 -2 0
-84 -3 0
-130 -1 0
-131 -2 0
-132 -3 0
-133 -1 0
-134 -2 0
-135 -3 0
-61 -4 0
-62 -5 0
-63 -6 0
-127 -4 0
-128 -5 0
-129 -6 0
-139 -4 0
-140 -5 0
-141 -6 0
-145 -4 0
-146 -5 0
-147 -6 0
-55 -7 0
-56 -8 0
-57 -9 0
-70 -7 0
-71 -8 0
-72 -9 0
-94 -7 0
-95 -8 0
-96 -9 0
-106 -7 0
-107 -8 0
-108 -9 0
-121 -7 0
-122 -8 0
-123 -9 0
-127 -7 0
-128 -8 0
-129 -9 0
-148 -7 0
-149 -8 0
-150 -9 0
-64 -10 0
-65 -11 0
-66 -12 0
-91 -10 0
-92 -11 0
-93 -12 0
-94 -10 0
-95 -11 0
-96 -12 0
-97 -10 0
-98 -11 0
-99 -12 0
-136 -10 0
-137 -11 0
-138 -12 0
-139 -10 0
-140 -11 0
-141 -12 0
-70 -13 0
-71 -14 0
-72 -15 0
-82 -13 0
-83 -14 0
-84 -15 0
-88 -13 0
-89 -14 0
-90 -15 0
-97 -13 0
-98 -14 0
-99 -15 0
-115 -13 0
-116 -14 0
-117 -15 0
-139 -13 0
-140 -14 0
-141 -15 0
-76 -16 0
-77 -17 0
-78 -18 0
-115 -16 0
-116 -17 0
-117 -18 0
-121 -16 0
-122 -17 0
-123 -18 0
-58 -19 0
-59 -20 0
-60 -21 0
-82 -19 0
-83 -20 0
-84 -21 0
-85 -19 0
-86 -20 0
-87 -21 0
-88 -19 0
-89 -20 0
-90 -21 0
-103 -19 0
-104 -20 0
-105 -21 0
-106 -19 0
-107 -20 0
-108 -21 0
-112 -19 0
-113 -20 0
-114 -21 0
-142 -19 0
-143 -20 0
-144 -21 0
-85 -22 0
-86 -23 0
-87 -24 0
-97 -22 0
-98 -23 0
-99 -24 0
-124 -22 0
-125 -23 0
-126 -24 0
-133 -22 0
-134 -23 0
-135 -24 0
-61 -25 0
-62 -26 0
-63 -27 0
-106 -25 0
-107 -26 0
-108 -27 0
-109 -25 0
-110 -26 0
-111 -27 0
-112 -25 0
-113 -26 0
-114 -27 0
-133 -25 0
-134 -26 0
-135 -27 0
-76 -28 0
-77 -29 0
-78 -30 0
-121 -28 0
-122 -29 0
-123 -30 0
-130 -28 0
-131 -29 0
-132 -30 0
-100 -31 0
-101 -32 0
-102 -33 0
-64 -34 0
-65 -35 0
-66 -36 0
-79 -34 0
-80 -35 0
-81 -36 0
-85 -34 0
-86 -35 0
-87 -36 0
-100 -34 0
-101 -35 0
-102 -36 0
-136 -34 0
-137 -35 0
-138 -36 0
-142 -34 0
-143 -35 0
-144 -36 0
-70 -37 0
-71 -38 0
-72 -39 0
-76 -37 0
-77 -38 0
-78 -39 0
-82 -37 0
-83 -38 0
-84 -39 0
-100 -37 0
-101 -38 0
-102 -39 0
-118 -37 0
-119 -38 0
-120 -39 0
-127 -37 0
-128 -38 0
-129 -39 0
-136 -37 0
-137 -38 0
-138 -39 0
-145 -37 0
-146 -38 0
-147 -39 0
-55 -40 0
-56 -41 0
-57 -42 0
-61 -43 0
-62 -44 0
-63 -45 0
-106 -43 0
-107 -44 0
-108 -45 0
-127 -43 0
-128 -44 0
-129 -45 0
-55 -46 0
-56 -47 0
-57 -48 0
-67 -46 0
-68 -47 0
-69 -48 0
-91 -46 0
-92 -47 0
-93 -48 0
-100 -46 0
-101 -47 0
-102 -48 0
-148 -46 0
-149 -47 0
-150 -48 0
-136 -49 0
-137 -50 0
-138 -51 0
-109 -55 0
-110 -56 0
-111 -57 0
-121 -55 0
-122 -56 0
-123 -57 0
-148 -55 0
-149 -56 0
-150 -57 0
-130 -58 0
-131 -59 0
-132 -60 0
-139 -58 0
-140 -59 0
-141 -60 0
-103 -61 0
-104 -62 0
-105 -63 0
-115 -61 0
-116 -62 0
-117 -63 0
-121 -61 0
-122 -62 0
-123 -63 0
-133 -61 0
-134 -62 0
-135 -63 0
-115 -64 0
-116 -65 0
-117 -66 0
-127 -64 0
-128 -65 0
-129 -66 0
-142 -64 0
-143 -65 0
-144 -66 0
-118 -67 0
-119 -68 0
-120 -69 0
-133 -67 0
-134 -68 0
-135 -69 0
-127 -70 0
-128 -71 0
-129 -72 0
-145 -70 0
-146 -71 0
-147 -72 0
-127 -79 0
-128 -80 0
-129 -81 0
-130 -82 0
-131 -83 0
-132 -84 0
-127 -85 0
-128 -86 0
-129 -87 0
-136 -85 0
-137 -86 0
-138 -87 0
-139 -85 0
-140 -86 0
-141 -87 0
-142 -85 0
-143 -86 0
-144 -87 0
-106 -88 0
-107 -89 0
-108 -90 0
-109 -88 0
-110 -89 0
-111 -90 0
-136 -88 0
-137 -89 0
-138 -90 0
-142 -88 0
-143 -89 0
-144 -90 0
-115 -91 0
-116 -92 0
-117 -93 0
-121 -91 0
-122 -92 0
-123 -93 0
-136 -91 0
-137 -92 0
-138 -93 0
-148 -91 0
-149 -92 0
-150 -93 0
-130 -94 0
-131 -95 0
-132 -96 0
-139 -94 0
-140 -95 0
-141 -96 0
-148 -94 0
-149 -95 0
-150 -96 0
-118 -97 0
-119 -98 0
-120 -99 0
-115 -100 0
-116 -101 0
-117 -102 0
-130 -100 0
-131 -101 0
-132 -102 0
-133 -100 0
-134 -101 0
-135 -102 0
-145 -100 0
-146 -101 0
-147 -102 0
